(set-logic QF_SLIA)
(declare-fun var0 () String)
(assert (not (str.in_re var0 (re.++ ((_ re.loop 0 201) (re.++ (re.union (str.to_re "zzK") (re.union (str.to_re "x") (re.union (str.to_re "ht") (str.to_re ")\u0022")))) (re.++ (re.union (str.to_re "'t") (re.union (str.to_re "/2B") (re.union (str.to_re "s") (str.to_re "q")))) (re.++ (re.union (str.to_re "/[@") (re.union (str.to_re "p") (re.union (str.to_re "V") (str.to_re "3A")))) (re.union (str.to_re "R") (re.union (str.to_re "rA") (re.union (str.to_re "n=D") (str.to_re "N")))))))) (re.++ ((_ re.loop 17 734) (re.++ (re.union (str.to_re "U'") (re.union (str.to_re "d") (re.union (str.to_re "lBX") (str.to_re "[[r")))) (re.++ (re.union (str.to_re "H&") (re.union (str.to_re "5:") (re.union (str.to_re "-") (str.to_re "%")))) (re.++ (re.union (str.to_re "?") (re.union (str.to_re "c2-") (re.union (str.to_re "HE^") (str.to_re "gG&")))) (re.union (str.to_re "Q{V") (re.union (str.to_re "+:d") (re.union (str.to_re "W") (str.to_re "K")))))))) (re.++ ((_ re.loop 8 553) (re.++ (re.union (str.to_re "M~") (re.union (str.to_re "G=") (re.union (str.to_re "2") (str.to_re "ywu")))) (re.++ (re.union (str.to_re "p") (re.union (str.to_re "s[") (re.union (str.to_re "q") (str.to_re "/}.")))) (re.++ (re.union (str.to_re "t") (re.union (str.to_re "CWp") (re.union (str.to_re "vK") (str.to_re "_Dk")))) (re.union (str.to_re "\\") (re.union (str.to_re "k") (re.union (str.to_re "zu") (str.to_re "v")))))))) ((_ re.loop 17 989) (re.++ (re.union (str.to_re ";j?") (re.union (str.to_re "Y") (re.union (str.to_re "2") (str.to_re "m")))) (re.++ (re.union (str.to_re "M/") (re.union (str.to_re "aX") (re.union (str.to_re "#") (str.to_re "UF")))) (re.++ (re.union (str.to_re "TP") (re.union (str.to_re "Z0K") (re.union (str.to_re "LSk") (str.to_re "9uF")))) (re.union (str.to_re "D~") (re.union (str.to_re "c9|") (re.union (str.to_re "Z$") (str.to_re "-Wq"))))))))))))))
(assert (not (str.in_re var0 (re.++ ((_ re.loop 20 237) (re.++ (re.union (str.to_re "x") (re.union (str.to_re "oT") (re.union (str.to_re "%") (str.to_re "u:u")))) (re.++ (re.union (str.to_re "co") (re.union (str.to_re ":i") (re.union (str.to_re ".") (str.to_re "&F*")))) (re.++ (re.union (str.to_re "5") (re.union (str.to_re "F/") (re.union (str.to_re "j") (str.to_re ".")))) (re.union (str.to_re "$7") (re.union (str.to_re ".Fg") (re.union (str.to_re "k]") (str.to_re "#(s")))))))) (re.++ ((_ re.loop 10 688) (re.++ (re.union (str.to_re "|") (re.union (str.to_re "BT") (re.union (str.to_re ",/") (str.to_re "!")))) (re.++ (re.union (str.to_re "*e)") (re.union (str.to_re "2xX") (re.union (str.to_re "9") (str.to_re "BK")))) (re.++ (re.union (str.to_re "A`~") (re.union (str.to_re "u") (re.union (str.to_re "g") (str.to_re "g")))) (re.union (str.to_re ":%f") (re.union (str.to_re "}") (re.union (str.to_re "Zh") (str.to_re "xH")))))))) (re.++ ((_ re.loop 9 251) (re.++ (re.union (str.to_re "u%9") (re.union (str.to_re "s") (re.union (str.to_re "<") (str.to_re ")g")))) (re.++ (re.union (str.to_re "JI") (re.union (str.to_re "lK") (re.union (str.to_re "y") (str.to_re "Mny")))) (re.++ (re.union (str.to_re "%") (re.union (str.to_re "+eH") (re.union (str.to_re "r") (str.to_re "Pc")))) (re.union (str.to_re "\\") (re.union (str.to_re "R4") (re.union (str.to_re "8R") (str.to_re "~WO")))))))) ((_ re.loop 13 773) (re.++ (re.union (str.to_re "7") (re.union (str.to_re "WZ2") (re.union (str.to_re "C") (str.to_re "6")))) (re.++ (re.union (str.to_re "X56") (re.union (str.to_re "fW:") (re.union (str.to_re "?;k") (str.to_re "{}!")))) (re.++ (re.union (str.to_re "Gi?") (re.union (str.to_re "Mi:") (re.union (str.to_re "g&") (str.to_re "?Od")))) (re.union (str.to_re "_") (re.union (str.to_re "P") (re.union (str.to_re "uw") (str.to_re "TPr"))))))))))))))
(assert (not (str.in_re var0 (re.++ (re.* re.allchar) (re.++ (re.union (str.to_re "<") (re.union (str.to_re ">") (re.union (str.to_re "'") (re.union (str.to_re "\u0022") (str.to_re "&"))))) (re.* re.allchar))))))
(assert (<= 50 (str.len var0)))
(check-sat)
(get-model)
